% Logging successfully configured
%%%mzn-stat: initTime=0.003514343
%%%mzn-stat: objective=649
%%%mzn-stat: nodes=125
%%%mzn-stat: restarts=0
%%%mzn-stat: peakDepth=125
%%%mzn-stat: solveTime=0.00070593
%%%mzn-stat: variables=280
%%%mzn-stat: propagators=182
%%%mzn-stat: failures=0
%%%mzn-stat: propagations=613
%%%mzn-stat: nogoods=0
%%%mzn-stat: numAtomicConstraintsPropagated=0
%%%mzn-stat: circuitNumber1PropagationsTotal=26
%%%mzn-stat: circuitNumber1CircuitConflicts=0
%%%mzn-stat: circuitNumber1AlldiffConflicts=0
%%%mzn-stat: circuitNumber1TotalFixedEdgesAtConflict=0
%%%mzn-stat: circuitNumber1NumberOfConflicts=0
%%%mzn-stat: circuitNumber1GacPrunings=57
%%%mzn-stat: circuitNumber1PropagationsThatGacPruned=12
%%%mzn-stat: circuitNumber1TotalPruningHallSetSize=133
%%%mzn-stat: circuitNumber1NumberOfPruningExplanations=57
%%%mzn-stat: circuitNumber1MaxPruningHallSetSize=11
%%%mzn-stat: circuitNumber1TotalSccSizeAtPruning=36
%%%mzn-stat: circuitNumber1NumberOfSccPruningCalls=12
%%%mzn-stat: circuitNumber1TotalVarsInvolvedInPruning=47
%%%mzn-stat: circuitNumber1MaxValuesPrunedFromSingleVar=3
%%%mzn-stat: circuitNumber1HallCircuitChecks=38
%%%mzn-stat: circuitNumber1HallCircuitPrunings=1
%%%mzn-stat: circuitNumber1CircuitPreventPrunings=9
%%%mzn-stat: AverageConflictSize=0
%%%mzn-stat: NumUnitNogoodsLearned=0
%%%mzn-stat: AverageLearnedNogoodLength=0
%%%mzn-stat: AverageBacktrackAmount=0
%%%mzn-stat: AverageLbd=0
%%%mzn-stat: 2AutonomousSearchNumBackupCalled=113
%%%mzn-stat: 2AutonomousSearchNumPredicatesRemoved=0
%%%mzn-stat: 2AutonomousSearchNumCalls=114
%%%mzn-stat: 2AutonomousSearchNumPredicatesAdded=0
%%%mzn-stat: 2AutonomousSearchAverageSizeOfHeap=0
%%%mzn-stat: 2AutonomousSearchNumAssignedPredicatesEncountered=0
%%%mzn-stat-end
maxleg = 649;
succ = array1d(1..20,[4, 5, 9, 7, 6, 1, 8, 10, 11, 12, 16, 18, 14, 15, 2, 17, 19, 3, 20, 13]);
% time elapsed: 0.17 s
----------
%%%mzn-stat: initTime=0.003514343
%%%mzn-stat: objective=553
%%%mzn-stat: nodes=290
%%%mzn-stat: restarts=0
%%%mzn-stat: peakDepth=125
%%%mzn-stat: solveTime=0.007822869
%%%mzn-stat: variables=280
%%%mzn-stat: propagators=182
%%%mzn-stat: failures=48
%%%mzn-stat: propagations=2017
%%%mzn-stat: nogoods=48
%%%mzn-stat: numAtomicConstraintsPropagated=0
%%%mzn-stat: circuitNumber1PropagationsTotal=265
%%%mzn-stat: circuitNumber1CircuitConflicts=29
%%%mzn-stat: circuitNumber1AlldiffConflicts=0
%%%mzn-stat: circuitNumber1TotalFixedEdgesAtConflict=480
%%%mzn-stat: circuitNumber1NumberOfConflicts=29
%%%mzn-stat: circuitNumber1GacPrunings=533
%%%mzn-stat: circuitNumber1PropagationsThatGacPruned=143
%%%mzn-stat: circuitNumber1TotalPruningHallSetSize=1166
%%%mzn-stat: circuitNumber1NumberOfPruningExplanations=533
%%%mzn-stat: circuitNumber1MaxPruningHallSetSize=11
%%%mzn-stat: circuitNumber1TotalSccSizeAtPruning=545
%%%mzn-stat: circuitNumber1NumberOfSccPruningCalls=143
%%%mzn-stat: circuitNumber1TotalVarsInvolvedInPruning=409
%%%mzn-stat: circuitNumber1MaxValuesPrunedFromSingleVar=4
%%%mzn-stat: circuitNumber1HallCircuitChecks=333
%%%mzn-stat: circuitNumber1HallCircuitPrunings=5
%%%mzn-stat: circuitNumber1CircuitPreventPrunings=125
%%%mzn-stat: AverageConflictSize=7.125
%%%mzn-stat: NumUnitNogoodsLearned=0
%%%mzn-stat: AverageLearnedNogoodLength=11.75
%%%mzn-stat: AverageBacktrackAmount=0
%%%mzn-stat: AverageLbd=6.708333333333333
%%%mzn-stat: 2AutonomousSearchNumBackupCalled=217
%%%mzn-stat: 2AutonomousSearchNumPredicatesRemoved=0
%%%mzn-stat: 2AutonomousSearchNumCalls=219
%%%mzn-stat: 2AutonomousSearchNumPredicatesAdded=301
%%%mzn-stat: 2AutonomousSearchAverageSizeOfHeap=1.3744292237442923
%%%mzn-stat: 2AutonomousSearchNumAssignedPredicatesEncountered=301
%%%mzn-stat-end
maxleg = 553;
succ = array1d(1..20,[4, 5, 9, 7, 6, 1, 13, 10, 11, 12, 16, 18, 8, 2, 14, 17, 19, 3, 20, 15]);
% time elapsed: 0.17 s
----------
%%%mzn-stat: initTime=0.003514343
%%%mzn-stat: objective=550
%%%mzn-stat: nodes=404
%%%mzn-stat: restarts=0
%%%mzn-stat: peakDepth=125
%%%mzn-stat: solveTime=0.008492082
%%%mzn-stat: variables=280
%%%mzn-stat: propagators=182
%%%mzn-stat: failures=48
%%%mzn-stat: propagations=2342
%%%mzn-stat: nogoods=48
%%%mzn-stat: numAtomicConstraintsPropagated=0
%%%mzn-stat: circuitNumber1PropagationsTotal=291
%%%mzn-stat: circuitNumber1CircuitConflicts=29
%%%mzn-stat: circuitNumber1AlldiffConflicts=0
%%%mzn-stat: circuitNumber1TotalFixedEdgesAtConflict=480
%%%mzn-stat: circuitNumber1NumberOfConflicts=29
%%%mzn-stat: circuitNumber1GacPrunings=587
%%%mzn-stat: circuitNumber1PropagationsThatGacPruned=156
%%%mzn-stat: circuitNumber1TotalPruningHallSetSize=1288
%%%mzn-stat: circuitNumber1NumberOfPruningExplanations=587
%%%mzn-stat: circuitNumber1MaxPruningHallSetSize=11
%%%mzn-stat: circuitNumber1TotalSccSizeAtPruning=596
%%%mzn-stat: circuitNumber1NumberOfSccPruningCalls=156
%%%mzn-stat: circuitNumber1TotalVarsInvolvedInPruning=454
%%%mzn-stat: circuitNumber1MaxValuesPrunedFromSingleVar=4
%%%mzn-stat: circuitNumber1HallCircuitChecks=356
%%%mzn-stat: circuitNumber1HallCircuitPrunings=6
%%%mzn-stat: circuitNumber1CircuitPreventPrunings=137
%%%mzn-stat: AverageConflictSize=7.125
%%%mzn-stat: NumUnitNogoodsLearned=0
%%%mzn-stat: AverageLearnedNogoodLength=11.75
%%%mzn-stat: AverageBacktrackAmount=0
%%%mzn-stat: AverageLbd=6.708333333333333
%%%mzn-stat: 2AutonomousSearchNumBackupCalled=320
%%%mzn-stat: 2AutonomousSearchNumPredicatesRemoved=0
%%%mzn-stat: 2AutonomousSearchNumCalls=323
%%%mzn-stat: 2AutonomousSearchNumPredicatesAdded=301
%%%mzn-stat: 2AutonomousSearchAverageSizeOfHeap=1.8637770897832817
%%%mzn-stat: 2AutonomousSearchNumAssignedPredicatesEncountered=602
%%%mzn-stat-end
maxleg = 550;
succ = array1d(1..20,[4, 5, 9, 7, 14, 1, 8, 10, 11, 12, 16, 18, 6, 13, 2, 17, 19, 3, 20, 15]);
% time elapsed: 0.17 s
----------
%%%mzn-stat: initTime=0.003514343
%%%mzn-stat: objective=488
%%%mzn-stat: nodes=513
%%%mzn-stat: restarts=0
%%%mzn-stat: peakDepth=125
%%%mzn-stat: solveTime=0.009173678
%%%mzn-stat: variables=280
%%%mzn-stat: propagators=182
%%%mzn-stat: failures=48
%%%mzn-stat: propagations=2670
%%%mzn-stat: nogoods=48
%%%mzn-stat: numAtomicConstraintsPropagated=0
%%%mzn-stat: circuitNumber1PropagationsTotal=317
%%%mzn-stat: circuitNumber1CircuitConflicts=29
%%%mzn-stat: circuitNumber1AlldiffConflicts=0
%%%mzn-stat: circuitNumber1TotalFixedEdgesAtConflict=480
%%%mzn-stat: circuitNumber1NumberOfConflicts=29
%%%mzn-stat: circuitNumber1GacPrunings=640
%%%mzn-stat: circuitNumber1PropagationsThatGacPruned=169
%%%mzn-stat: circuitNumber1TotalPruningHallSetSize=1407
%%%mzn-stat: circuitNumber1NumberOfPruningExplanations=640
%%%mzn-stat: circuitNumber1MaxPruningHallSetSize=11
%%%mzn-stat: circuitNumber1TotalSccSizeAtPruning=647
%%%mzn-stat: circuitNumber1NumberOfSccPruningCalls=169
%%%mzn-stat: circuitNumber1TotalVarsInvolvedInPruning=499
%%%mzn-stat: circuitNumber1MaxValuesPrunedFromSingleVar=4
%%%mzn-stat: circuitNumber1HallCircuitChecks=379
%%%mzn-stat: circuitNumber1HallCircuitPrunings=7
%%%mzn-stat: circuitNumber1CircuitPreventPrunings=149
%%%mzn-stat: AverageConflictSize=7.125
%%%mzn-stat: NumUnitNogoodsLearned=0
%%%mzn-stat: AverageLearnedNogoodLength=11.75
%%%mzn-stat: AverageBacktrackAmount=0
%%%mzn-stat: AverageLbd=6.708333333333333
%%%mzn-stat: 2AutonomousSearchNumBackupCalled=418
%%%mzn-stat: 2AutonomousSearchNumPredicatesRemoved=0
%%%mzn-stat: 2AutonomousSearchNumCalls=422
%%%mzn-stat: 2AutonomousSearchNumPredicatesAdded=301
%%%mzn-stat: 2AutonomousSearchAverageSizeOfHeap=2.139810426540284
%%%mzn-stat: 2AutonomousSearchNumAssignedPredicatesEncountered=903
%%%mzn-stat-end
maxleg = 488;
succ = array1d(1..20,[4, 5, 9, 8, 14, 1, 6, 10, 11, 12, 16, 18, 7, 13, 2, 17, 19, 3, 20, 15]);
% time elapsed: 0.17 s
----------
%%%mzn-stat: initTime=0.003514343
%%%mzn-stat: objective=412
%%%mzn-stat: nodes=607
%%%mzn-stat: restarts=0
%%%mzn-stat: peakDepth=125
%%%mzn-stat: solveTime=0.01013658
%%%mzn-stat: variables=280
%%%mzn-stat: propagators=182
%%%mzn-stat: failures=50
%%%mzn-stat: propagations=3048
%%%mzn-stat: nogoods=50
%%%mzn-stat: numAtomicConstraintsPropagated=0
%%%mzn-stat: circuitNumber1PropagationsTotal=349
%%%mzn-stat: circuitNumber1CircuitConflicts=30
%%%mzn-stat: circuitNumber1AlldiffConflicts=0
%%%mzn-stat: circuitNumber1TotalFixedEdgesAtConflict=490
%%%mzn-stat: circuitNumber1NumberOfConflicts=30
%%%mzn-stat: circuitNumber1GacPrunings=700
%%%mzn-stat: circuitNumber1PropagationsThatGacPruned=186
%%%mzn-stat: circuitNumber1TotalPruningHallSetSize=1593
%%%mzn-stat: circuitNumber1NumberOfPruningExplanations=700
%%%mzn-stat: circuitNumber1MaxPruningHallSetSize=14
%%%mzn-stat: circuitNumber1TotalSccSizeAtPruning=772
%%%mzn-stat: circuitNumber1NumberOfSccPruningCalls=186
%%%mzn-stat: circuitNumber1TotalVarsInvolvedInPruning=547
%%%mzn-stat: circuitNumber1MaxValuesPrunedFromSingleVar=4
%%%mzn-stat: circuitNumber1HallCircuitChecks=407
%%%mzn-stat: circuitNumber1HallCircuitPrunings=8
%%%mzn-stat: circuitNumber1CircuitPreventPrunings=165
%%%mzn-stat: AverageConflictSize=7.08
%%%mzn-stat: NumUnitNogoodsLearned=0
%%%mzn-stat: AverageLearnedNogoodLength=12.06
%%%mzn-stat: AverageBacktrackAmount=0
%%%mzn-stat: AverageLbd=6.74
%%%mzn-stat: 2AutonomousSearchNumBackupCalled=500
%%%mzn-stat: 2AutonomousSearchNumPredicatesRemoved=0
%%%mzn-stat: 2AutonomousSearchNumCalls=505
%%%mzn-stat: 2AutonomousSearchNumPredicatesAdded=381
%%%mzn-stat: 2AutonomousSearchAverageSizeOfHeap=2.485148514851485
%%%mzn-stat: 2AutonomousSearchNumAssignedPredicatesEncountered=1255
%%%mzn-stat-end
maxleg = 412;
succ = array1d(1..20,[4, 5, 9, 8, 14, 7, 13, 10, 11, 12, 16, 18, 1, 6, 2, 17, 19, 3, 20, 15]);
% time elapsed: 0.17 s
----------
%%%mzn-stat: initTime=0.003514343
%%%mzn-stat: objective=411
%%%mzn-stat: nodes=693
%%%mzn-stat: restarts=0
%%%mzn-stat: peakDepth=125
%%%mzn-stat: solveTime=0.011177255
%%%mzn-stat: variables=280
%%%mzn-stat: propagators=182
%%%mzn-stat: failures=52
%%%mzn-stat: propagations=3417
%%%mzn-stat: nogoods=52
%%%mzn-stat: numAtomicConstraintsPropagated=0
%%%mzn-stat: circuitNumber1PropagationsTotal=382
%%%mzn-stat: circuitNumber1CircuitConflicts=31
%%%mzn-stat: circuitNumber1AlldiffConflicts=0
%%%mzn-stat: circuitNumber1TotalFixedEdgesAtConflict=507
%%%mzn-stat: circuitNumber1NumberOfConflicts=31
%%%mzn-stat: circuitNumber1GacPrunings=761
%%%mzn-stat: circuitNumber1PropagationsThatGacPruned=204
%%%mzn-stat: circuitNumber1TotalPruningHallSetSize=1802
%%%mzn-stat: circuitNumber1NumberOfPruningExplanations=761
%%%mzn-stat: circuitNumber1MaxPruningHallSetSize=17
%%%mzn-stat: circuitNumber1TotalSccSizeAtPruning=910
%%%mzn-stat: circuitNumber1NumberOfSccPruningCalls=204
%%%mzn-stat: circuitNumber1TotalVarsInvolvedInPruning=595
%%%mzn-stat: circuitNumber1MaxValuesPrunedFromSingleVar=4
%%%mzn-stat: circuitNumber1HallCircuitChecks=438
%%%mzn-stat: circuitNumber1HallCircuitPrunings=8
%%%mzn-stat: circuitNumber1CircuitPreventPrunings=182
%%%mzn-stat: AverageConflictSize=7.384615384615385
%%%mzn-stat: NumUnitNogoodsLearned=0
%%%mzn-stat: AverageLearnedNogoodLength=12.384615384615385
%%%mzn-stat: AverageBacktrackAmount=0
%%%mzn-stat: AverageLbd=6.8076923076923075
%%%mzn-stat: 2AutonomousSearchNumBackupCalled=577
%%%mzn-stat: 2AutonomousSearchNumPredicatesRemoved=0
%%%mzn-stat: 2AutonomousSearchNumCalls=583
%%%mzn-stat: 2AutonomousSearchNumPredicatesAdded=487
%%%mzn-stat: 2AutonomousSearchAverageSizeOfHeap=2.7615780445969125
%%%mzn-stat: 2AutonomousSearchNumAssignedPredicatesEncountered=1610
%%%mzn-stat-end
maxleg = 411;
succ = array1d(1..20,[4, 5, 9, 12, 14, 1, 6, 13, 11, 16, 17, 18, 7, 8, 2, 3, 19, 10, 20, 15]);
% time elapsed: 0.18 s
----------
%%%mzn-stat: initTime=0.003514343
%%%mzn-stat: objective=358
%%%mzn-stat: nodes=775
%%%mzn-stat: restarts=0
%%%mzn-stat: peakDepth=125
%%%mzn-stat: solveTime=0.01233984
%%%mzn-stat: variables=280
%%%mzn-stat: propagators=182
%%%mzn-stat: failures=55
%%%mzn-stat: propagations=3831
%%%mzn-stat: nogoods=55
%%%mzn-stat: numAtomicConstraintsPropagated=0
%%%mzn-stat: circuitNumber1PropagationsTotal=420
%%%mzn-stat: circuitNumber1CircuitConflicts=33
%%%mzn-stat: circuitNumber1AlldiffConflicts=0
%%%mzn-stat: circuitNumber1TotalFixedEdgesAtConflict=533
%%%mzn-stat: circuitNumber1NumberOfConflicts=33
%%%mzn-stat: circuitNumber1GacPrunings=824
%%%mzn-stat: circuitNumber1PropagationsThatGacPruned=224
%%%mzn-stat: circuitNumber1TotalPruningHallSetSize=2015
%%%mzn-stat: circuitNumber1NumberOfPruningExplanations=824
%%%mzn-stat: circuitNumber1MaxPruningHallSetSize=17
%%%mzn-stat: circuitNumber1TotalSccSizeAtPruning=1052
%%%mzn-stat: circuitNumber1NumberOfSccPruningCalls=224
%%%mzn-stat: circuitNumber1TotalVarsInvolvedInPruning=646
%%%mzn-stat: circuitNumber1MaxValuesPrunedFromSingleVar=4
%%%mzn-stat: circuitNumber1HallCircuitChecks=473
%%%mzn-stat: circuitNumber1HallCircuitPrunings=8
%%%mzn-stat: circuitNumber1CircuitPreventPrunings=200
%%%mzn-stat: AverageConflictSize=7.5636363636363635
%%%mzn-stat: NumUnitNogoodsLearned=0
%%%mzn-stat: AverageLearnedNogoodLength=12.963636363636363
%%%mzn-stat: AverageBacktrackAmount=0
%%%mzn-stat: AverageLbd=6.890909090909091
%%%mzn-stat: 2AutonomousSearchNumBackupCalled=647
%%%mzn-stat: 2AutonomousSearchNumPredicatesRemoved=0
%%%mzn-stat: 2AutonomousSearchNumCalls=654
%%%mzn-stat: 2AutonomousSearchNumPredicatesAdded=637
%%%mzn-stat: 2AutonomousSearchAverageSizeOfHeap=3.0275229357798166
%%%mzn-stat: 2AutonomousSearchNumAssignedPredicatesEncountered=1980
%%%mzn-stat-end
maxleg = 358;
succ = array1d(1..20,[4, 5, 9, 12, 14, 7, 13, 6, 11, 16, 17, 18, 1, 8, 2, 3, 19, 10, 20, 15]);
% time elapsed: 0.18 s
----------
%%%mzn-stat: initTime=0.003514343
%%%mzn-stat: objective=335
%%%mzn-stat: nodes=854
%%%mzn-stat: restarts=0
%%%mzn-stat: peakDepth=125
%%%mzn-stat: solveTime=0.013491387
%%%mzn-stat: variables=280
%%%mzn-stat: propagators=182
%%%mzn-stat: failures=58
%%%mzn-stat: propagations=4245
%%%mzn-stat: nogoods=58
%%%mzn-stat: numAtomicConstraintsPropagated=0
%%%mzn-stat: circuitNumber1PropagationsTotal=454
%%%mzn-stat: circuitNumber1CircuitConflicts=35
%%%mzn-stat: circuitNumber1AlldiffConflicts=0
%%%mzn-stat: circuitNumber1TotalFixedEdgesAtConflict=560
%%%mzn-stat: circuitNumber1NumberOfConflicts=35
%%%mzn-stat: circuitNumber1GacPrunings=886
%%%mzn-stat: circuitNumber1PropagationsThatGacPruned=242
%%%mzn-stat: circuitNumber1TotalPruningHallSetSize=2274
%%%mzn-stat: circuitNumber1NumberOfPruningExplanations=886
%%%mzn-stat: circuitNumber1MaxPruningHallSetSize=17
%%%mzn-stat: circuitNumber1TotalSccSizeAtPruning=1212
%%%mzn-stat: circuitNumber1NumberOfSccPruningCalls=242
%%%mzn-stat: circuitNumber1TotalVarsInvolvedInPruning=691
%%%mzn-stat: circuitNumber1MaxValuesPrunedFromSingleVar=4
%%%mzn-stat: circuitNumber1HallCircuitChecks=502
%%%mzn-stat: circuitNumber1HallCircuitPrunings=8
%%%mzn-stat: circuitNumber1CircuitPreventPrunings=217
%%%mzn-stat: AverageConflictSize=7.724137931034483
%%%mzn-stat: NumUnitNogoodsLearned=0
%%%mzn-stat: AverageLearnedNogoodLength=13.53448275862069
%%%mzn-stat: AverageBacktrackAmount=0
%%%mzn-stat: AverageLbd=6.879310344827586
%%%mzn-stat: 2AutonomousSearchNumBackupCalled=716
%%%mzn-stat: 2AutonomousSearchNumPredicatesRemoved=0
%%%mzn-stat: 2AutonomousSearchNumCalls=724
%%%mzn-stat: 2AutonomousSearchNumPredicatesAdded=779
%%%mzn-stat: 2AutonomousSearchAverageSizeOfHeap=3.2527624309392267
%%%mzn-stat: 2AutonomousSearchNumAssignedPredicatesEncountered=2355
%%%mzn-stat-end
maxleg = 335;
succ = array1d(1..20,[4, 5, 9, 12, 15, 7, 13, 6, 11, 16, 17, 18, 1, 8, 14, 3, 19, 10, 20, 2]);
% time elapsed: 0.18 s
----------
==========
% time elapsed: 0.18 s
%%%mzn-stat: initTime=0.003514343
%%%mzn-stat: objective=335
%%%mzn-stat: nodes=854
%%%mzn-stat: restarts=0
%%%mzn-stat: peakDepth=125
%%%mzn-stat: solveTime=0.013632455
%%%mzn-stat: variables=280
%%%mzn-stat: propagators=182
%%%mzn-stat: failures=59
%%%mzn-stat: propagations=4323
%%%mzn-stat: nogoods=59
%%%mzn-stat: numAtomicConstraintsPropagated=0
%%%mzn-stat: circuitNumber1PropagationsTotal=455
%%%mzn-stat: circuitNumber1CircuitConflicts=35
%%%mzn-stat: circuitNumber1AlldiffConflicts=0
%%%mzn-stat: circuitNumber1TotalFixedEdgesAtConflict=560
%%%mzn-stat: circuitNumber1NumberOfConflicts=35
%%%mzn-stat: circuitNumber1GacPrunings=894
%%%mzn-stat: circuitNumber1PropagationsThatGacPruned=243
%%%mzn-stat: circuitNumber1TotalPruningHallSetSize=2354
%%%mzn-stat: circuitNumber1NumberOfPruningExplanations=894
%%%mzn-stat: circuitNumber1MaxPruningHallSetSize=19
%%%mzn-stat: circuitNumber1TotalSccSizeAtPruning=1249
%%%mzn-stat: circuitNumber1NumberOfSccPruningCalls=243
%%%mzn-stat: circuitNumber1TotalVarsInvolvedInPruning=696
%%%mzn-stat: circuitNumber1MaxValuesPrunedFromSingleVar=4
%%%mzn-stat: circuitNumber1HallCircuitChecks=503
%%%mzn-stat: circuitNumber1HallCircuitPrunings=8
%%%mzn-stat: circuitNumber1CircuitPreventPrunings=218
%%%mzn-stat: AverageConflictSize=7.627118644067797
%%%mzn-stat: NumUnitNogoodsLearned=1
%%%mzn-stat: AverageLearnedNogoodLength=13.322033898305085
%%%mzn-stat: AverageBacktrackAmount=0
%%%mzn-stat: AverageLbd=6.779661016949152
%%%mzn-stat: 2AutonomousSearchNumBackupCalled=716
%%%mzn-stat: 2AutonomousSearchNumPredicatesRemoved=0
%%%mzn-stat: 2AutonomousSearchNumCalls=724
%%%mzn-stat: 2AutonomousSearchNumPredicatesAdded=891
%%%mzn-stat: 2AutonomousSearchAverageSizeOfHeap=3.2527624309392267
%%%mzn-stat: 2AutonomousSearchNumAssignedPredicatesEncountered=2355
%%%mzn-stat-end
